275
822
225
647
428
335
368
279
259
123
138
120
321
2130
1039
4405
2550
133
7316
74
125
184
111
996
569
113
296
132
457
2718
1257
1011
357
1104
628
272
360
23955
181
840
2954
189
127
589
449
8637
105
307
33
160
176
514
614
2771
0
124
2197
210
2505
389
1752
401
247
224
121
98
132
158
365
181
269
135
187
268
280
794
653
261
909
353
2101
397
86
395
84
716
263
445
70
328
569
118
812
755
237
485
28
309
457
13048
